c nIsolatedPIs 0
c maxPI 32
p cnf 199 502
c gate 33 -6 -22 0
-6 -33 0
-22 -33 0
6 22 33 0
c gate 34 -2 -18 0
-2 -34 0
-18 -34 0
2 18 34 0
c gate 35 4 20 0
4 -35 0
20 -35 0
-4 -20 35 0
c gate 36 3 19 0
3 -36 0
19 -36 0
-3 -19 36 0
c gate 37 -35 -36 0
-35 -37 0
-36 -37 0
35 36 37 0
c gate 38 34 37 0
34 -38 0
37 -38 0
-34 -37 38 0
c gate 39 1 17 0
1 -39 0
17 -39 0
-1 -17 39 0
c gate 40 2 18 0
2 -40 0
18 -40 0
-2 -18 40 0
c gate 41 -39 -40 0
-39 -41 0
-40 -41 0
39 40 41 0
c gate 42 -3 -19 0
-3 -42 0
-19 -42 0
3 19 42 0
c gate 43 -41 -42 0
-41 -43 0
-42 -43 0
41 42 43 0
c gate 44 37 -43 0
37 -44 0
-43 -44 0
-37 43 44 0
c gate 45 -5 -21 0
-5 -45 0
-21 -45 0
5 21 45 0
c gate 46 -4 -20 0
-4 -46 0
-20 -46 0
4 20 46 0
c gate 47 -45 -46 0
-45 -47 0
-46 -47 0
45 46 47 0
c gate 48 -44 47 0
-44 -48 0
47 -48 0
44 -47 48 0
c gate 49 -38 48 0
-38 -49 0
48 -49 0
38 -48 49 0
c gate 50 5 21 0
5 -50 0
21 -50 0
-5 -21 50 0
c gate 51 6 22 0
6 -51 0
22 -51 0
-6 -22 51 0
c gate 52 -50 -51 0
-50 -52 0
-51 -52 0
50 51 52 0
c gate 53 -49 52 0
-49 -53 0
52 -53 0
49 -52 53 0
c gate 54 -33 -53 0
-33 -54 0
-53 -54 0
33 53 54 0
c gate 55 -48 53 0
-48 -55 0
53 -55 0
48 -53 55 0
c gate 56 -54 -55 0
-54 -56 0
-55 -56 0
54 55 56 0
c gate 57 15 -31 0
15 -57 0
-31 -57 0
-15 31 57 0
c gate 58 -13 29 0
-13 -58 0
29 -58 0
13 -29 58 0
c gate 59 14 -30 0
14 -59 0
-30 -59 0
-14 30 59 0
c gate 60 -14 30 0
-14 -60 0
30 -60 0
14 -30 60 0
c gate 61 -59 -60 0
-59 -61 0
-60 -61 0
59 60 61 0
c gate 62 58 61 0
58 -62 0
61 -62 0
-58 -61 62 0
c gate 63 12 -28 0
12 -63 0
-28 -63 0
-12 28 63 0
c gate 64 11 -27 0
11 -64 0
-27 -64 0
-11 27 64 0
c gate 65 -10 26 0
-10 -65 0
26 -65 0
10 -26 65 0
c gate 66 10 -26 0
10 -66 0
-26 -66 0
-10 26 66 0
c gate 67 -9 25 0
-9 -67 0
25 -67 0
9 -25 67 0
c gate 68 7 -23 0
7 -68 0
-23 -68 0
-7 23 68 0
c gate 69 -6 22 0
-6 -69 0
22 -69 0
6 -22 69 0
c gate 70 2 -18 0
2 -70 0
-18 -70 0
-2 18 70 0
c gate 71 -1 17 0
-1 -71 0
17 -71 0
1 -17 71 0
c gate 72 -70 71 0
-70 -72 0
71 -72 0
70 -71 72 0
c gate 73 -3 19 0
-3 -73 0
19 -73 0
3 -19 73 0
c gate 74 -2 18 0
-2 -74 0
18 -74 0
2 -18 74 0
c gate 75 -73 -74 0
-73 -75 0
-74 -75 0
73 74 75 0
c gate 76 -72 75 0
-72 -76 0
75 -76 0
72 -75 76 0
c gate 77 4 -20 0
4 -77 0
-20 -77 0
-4 20 77 0
c gate 78 3 -19 0
3 -78 0
-19 -78 0
-3 19 78 0
c gate 79 -77 -78 0
-77 -79 0
-78 -79 0
77 78 79 0
c gate 80 -76 79 0
-76 -80 0
79 -80 0
76 -79 80 0
c gate 81 -5 21 0
-5 -81 0
21 -81 0
5 -21 81 0
c gate 82 -4 20 0
-4 -82 0
20 -82 0
4 -20 82 0
c gate 83 -81 -82 0
-81 -83 0
-82 -83 0
81 82 83 0
c gate 84 -80 83 0
-80 -84 0
83 -84 0
80 -83 84 0
c gate 85 6 -22 0
6 -85 0
-22 -85 0
-6 22 85 0
c gate 86 5 -21 0
5 -86 0
-21 -86 0
-5 21 86 0
c gate 87 -85 -86 0
-85 -87 0
-86 -87 0
85 86 87 0
c gate 88 -84 87 0
-84 -88 0
87 -88 0
84 -87 88 0
c gate 89 -69 -88 0
-69 -89 0
-88 -89 0
69 88 89 0
c gate 90 -68 -89 0
-68 -90 0
-89 -90 0
68 89 90 0
c gate 91 -7 23 0
-7 -91 0
23 -91 0
7 -23 91 0
c gate 92 -8 24 0
-8 -92 0
24 -92 0
8 -24 92 0
c gate 93 -91 -92 0
-91 -93 0
-92 -93 0
91 92 93 0
c gate 94 -90 93 0
-90 -94 0
93 -94 0
90 -93 94 0
c gate 95 8 -24 0
8 -95 0
-24 -95 0
-8 24 95 0
c gate 96 9 -25 0
9 -96 0
-25 -96 0
-9 25 96 0
c gate 97 -95 -96 0
-95 -97 0
-96 -97 0
95 96 97 0
c gate 98 -94 97 0
-94 -98 0
97 -98 0
94 -97 98 0
c gate 99 -67 -98 0
-67 -99 0
-98 -99 0
67 98 99 0
c gate 100 -66 -99 0
-66 -100 0
-99 -100 0
66 99 100 0
c gate 101 -65 -100 0
-65 -101 0
-100 -101 0
65 100 101 0
c gate 102 -64 -101 0
-64 -102 0
-101 -102 0
64 101 102 0
c gate 103 -12 28 0
-12 -103 0
28 -103 0
12 -28 103 0
c gate 104 -11 27 0
-11 -104 0
27 -104 0
11 -27 104 0
c gate 105 -103 -104 0
-103 -105 0
-104 -105 0
103 104 105 0
c gate 106 -102 105 0
-102 -106 0
105 -106 0
102 -105 106 0
c gate 107 -63 -106 0
-63 -107 0
-106 -107 0
63 106 107 0
c gate 108 13 -29 0
13 -108 0
-29 -108 0
-13 29 108 0
c gate 109 -59 -108 0
-59 -109 0
-108 -109 0
59 108 109 0
c gate 110 107 109 0
107 -110 0
109 -110 0
-107 -109 110 0
c gate 111 -15 31 0
-15 -111 0
31 -111 0
15 -31 111 0
c gate 112 -60 -111 0
-60 -112 0
-111 -112 0
60 111 112 0
c gate 113 -110 112 0
-110 -113 0
112 -113 0
110 -112 113 0
c gate 114 -62 113 0
-62 -114 0
113 -114 0
62 -113 114 0
c gate 115 -57 -114 0
-57 -115 0
-114 -115 0
57 114 115 0
c gate 116 -16 -32 0
-16 -116 0
-32 -116 0
16 32 116 0
c gate 117 16 32 0
16 -117 0
32 -117 0
-16 -32 117 0
c gate 118 -116 -117 0
-116 -118 0
-117 -118 0
116 117 118 0
c gate 119 115 -118 0
115 -119 0
-118 -119 0
-115 118 119 0
c gate 120 -115 118 0
-115 -120 0
118 -120 0
115 -118 120 0
c gate 121 -119 -120 0
-119 -121 0
-120 -121 0
119 120 121 0
c gate 122 -113 -118 0
-113 -122 0
-118 -122 0
113 118 122 0
c gate 123 113 118 0
113 -123 0
118 -123 0
-113 -118 123 0
c gate 124 -122 -123 0
-122 -124 0
-123 -124 0
122 123 124 0
c gate 125 121 -124 0
121 -125 0
-124 -125 0
-121 124 125 0
c gate 126 -121 124 0
-121 -126 0
124 -126 0
121 -124 126 0
c gate 127 -57 -111 0
-57 -127 0
-111 -127 0
57 111 127 0
c gate 128 62 127 0
62 -128 0
127 -128 0
-62 -127 128 0
c gate 129 -107 128 0
-107 -129 0
128 -129 0
107 -128 129 0
c gate 130 58 -107 0
58 -130 0
-107 -130 0
-58 107 130 0
c gate 131 -9 -25 0
-9 -131 0
-25 -131 0
9 25 131 0
c gate 132 -92 -95 0
-92 -132 0
-95 -132 0
92 95 132 0
c gate 133 7 23 0
7 -133 0
23 -133 0
-7 -23 133 0
c gate 134 -7 -23 0
-7 -134 0
-23 -134 0
7 23 134 0
c gate 135 -55 -134 0
-55 -135 0
-134 -135 0
55 134 135 0
c gate 136 -133 -135 0
-133 -136 0
-135 -136 0
133 135 136 0
c gate 137 -132 -136 0
-132 -137 0
-136 -137 0
132 136 137 0
c gate 138 8 24 0
8 -138 0
24 -138 0
-8 -24 138 0
c gate 139 -137 -138 0
-137 -139 0
-138 -139 0
137 138 139 0
c gate 140 -131 -139 0
-131 -140 0
-139 -140 0
131 139 140 0
c gate 141 10 26 0
10 -141 0
26 -141 0
-10 -26 141 0
c gate 142 9 25 0
9 -142 0
25 -142 0
-9 -25 142 0
c gate 143 -141 -142 0
-141 -143 0
-142 -143 0
141 142 143 0
c gate 144 -140 143 0
-140 -144 0
143 -144 0
140 -143 144 0
c gate 145 -10 -26 0
-10 -145 0
-26 -145 0
10 26 145 0
c gate 146 -11 -27 0
-11 -146 0
-27 -146 0
11 27 146 0
c gate 147 -145 -146 0
-145 -147 0
-146 -147 0
145 146 147 0
c gate 148 -144 147 0
-144 -148 0
147 -148 0
144 -147 148 0
c gate 149 11 27 0
11 -149 0
27 -149 0
-11 -27 149 0
c gate 150 12 28 0
12 -150 0
28 -150 0
-12 -28 150 0
c gate 151 -149 -150 0
-149 -151 0
-150 -151 0
149 150 151 0
c gate 152 -148 151 0
-148 -152 0
151 -152 0
148 -151 152 0
c gate 153 -54 -133 0
-54 -153 0
-133 -153 0
54 133 153 0
c gate 154 -134 -153 0
-134 -154 0
-153 -154 0
134 153 154 0
c gate 155 -132 154 0
-132 -155 0
154 -155 0
132 -154 155 0
c gate 156 -138 -142 0
-138 -156 0
-142 -156 0
138 142 156 0
c gate 157 -155 156 0
-155 -157 0
156 -157 0
155 -156 157 0
c gate 158 -131 -145 0
-131 -158 0
-145 -158 0
131 145 158 0
c gate 159 -157 158 0
-157 -159 0
158 -159 0
157 -158 159 0
c gate 160 -141 -149 0
-141 -160 0
-149 -160 0
141 149 160 0
c gate 161 -159 160 0
-159 -161 0
160 -161 0
159 -160 161 0
c gate 162 -12 -28 0
-12 -162 0
-28 -162 0
12 28 162 0
c gate 163 -146 -162 0
-146 -163 0
-162 -163 0
146 162 163 0
c gate 164 -161 163 0
-161 -164 0
163 -164 0
161 -163 164 0
c gate 165 -61 118 0
-61 -165 0
118 -165 0
61 -118 165 0
c gate 166 -63 -103 0
-63 -166 0
-103 -166 0
63 103 166 0
c gate 167 -58 -108 0
-58 -167 0
-108 -167 0
58 108 167 0
c gate 168 -127 -167 0
-127 -168 0
-167 -168 0
127 167 168 0
c gate 169 -166 168 0
-166 -169 0
168 -169 0
166 -168 169 0
c gate 170 165 169 0
165 -170 0
169 -170 0
-165 -169 170 0
c gate 171 -164 170 0
-164 -171 0
170 -171 0
164 -170 171 0
c gate 172 -152 171 0
-152 -172 0
171 -172 0
152 -171 172 0
c gate 173 132 -154 0
132 -173 0
-154 -173 0
-132 154 173 0
c gate 174 -155 -173 0
-155 -174 0
-173 -174 0
155 173 174 0
c gate 175 132 136 0
132 -175 0
136 -175 0
-132 -136 175 0
c gate 176 -137 -175 0
-137 -176 0
-175 -176 0
137 175 176 0
c gate 177 174 -176 0
174 -177 0
-176 -177 0
-174 176 177 0
c gate 178 -172 177 0
-172 -178 0
177 -178 0
172 -177 178 0
c gate 179 39 40 0
39 -179 0
40 -179 0
-39 -40 179 0
c gate 180 -56 179 0
-56 -180 0
179 -180 0
56 -179 180 0
c gate 181 135 153 0
135 -181 0
153 -181 0
-135 -153 181 0
c gate 182 -180 -181 0
-180 -182 0
-181 -182 0
180 181 182 0
c gate 183 -174 176 0
-174 -183 0
176 -183 0
174 -176 183 0
c gate 184 -182 -183 0
-182 -184 0
-183 -184 0
182 183 184 0
c gate 185 -178 184 0
-178 -185 0
184 -185 0
178 -184 185 0
c gate 186 -130 185 0
-130 -186 0
185 -186 0
130 -185 186 0
c gate 187 -129 -186 0
-129 -187 0
-186 -187 0
129 186 187 0
c gate 188 -126 187 0
-126 -188 0
187 -188 0
126 -187 188 0
c gate 189 -125 -188 0
-125 -189 0
-188 -189 0
125 188 189 0
c gate 190 34 39 0
34 -190 0
39 -190 0
-34 -39 190 0
c gate 191 -33 56 0
-33 -191 0
56 -191 0
33 -56 191 0
c gate 192 190 -191 0
190 -192 0
-191 -192 0
-190 191 192 0
c gate 193 189 -192 0
189 -193 0
-192 -193 0
-189 192 193 0
c gate 194 -179 -191 0
-179 -194 0
-191 -194 0
179 191 194 0
c gate 195 -189 194 0
-189 -195 0
194 -195 0
189 -194 195 0
c gate 196 -193 -195 0
-193 -196 0
-195 -196 0
193 195 196 0
c gate 197 56 -196 0
56 -197 0
-196 -197 0
-56 196 197 0
c gate 198 -56 196 0
-56 -198 0
196 -198 0
56 -196 198 0
c gate 199 -197 -198 0
-197 -199 0
-198 -199 0
197 198 199 0
c PO
-199 0
